(set-option :print-success false)
(set-logic QF_UF)
(declare-sort x121 0)
(declare-sort x29 0)
(declare-fun x81 () Bool)
(declare-fun x98 () Bool)
(declare-fun x131 () x121)
(declare-fun x174 () Bool)
(declare-fun x1 () Bool)
(declare-fun x118 () x121)
(declare-fun x102 () Bool)
(declare-fun x24 () Bool)
(declare-fun x128 () Bool)
(declare-fun x65 () Bool)
(declare-fun x153 () Bool)
(declare-fun x89 () Bool)
(declare-fun x161 () x121)
(declare-fun x141 () Bool)
(declare-fun x95 () Bool)
(declare-fun x120 (x29 x29) Bool)
(declare-fun x177 () x29)
(declare-fun x97 () Bool)
(declare-fun x22 () Bool)
(declare-fun x8 () Bool)
(declare-fun x171 () x29)
(declare-fun x61 () Bool)
(declare-fun x173 () x29)
(declare-fun x85 () x29)
(declare-fun x53 () Bool)
(declare-fun x184 () Bool)
(declare-fun x71 () x121)
(declare-fun x70 () Bool)
(declare-fun x158 () Bool)
(declare-fun x6 () Bool)
(declare-fun x72 () x121)
(declare-fun x26 () Bool)
(declare-fun x187 () Bool)
(declare-fun x20 () Bool)
(declare-fun x159 () x121)
(declare-fun x93 () Bool)
(declare-fun x37 () Bool)
(declare-fun x87 () Bool)
(declare-fun x84 () x29)
(declare-fun x122 () Bool)
(declare-fun x88 () Bool)
(declare-fun x140 () Bool)
(declare-fun x80 () Bool)
(declare-fun x108 () Bool)
(declare-fun x2 () Bool)
(declare-fun x33 () x29)
(declare-fun x145 () Bool)
(declare-fun x124 () Bool)
(declare-fun x12 () Bool)
(declare-fun x150 () Bool)
(declare-fun x132 () x29)
(declare-fun x104 () Bool)
(declare-fun x68 () Bool)
(declare-fun x166 () x121)
(declare-fun x175 () Bool)
(declare-fun x188 () x29)
(declare-fun x185 () Bool)
(declare-fun x35 () Bool)
(declare-fun x49 () Bool)
(declare-fun x146 () Bool)
(declare-fun x152 () x29)
(declare-fun x162 () Bool)
(declare-fun x186 () Bool)
(declare-fun x47 () Bool)
(declare-fun x39 () Bool)
(declare-fun x191 () Bool)
(declare-fun x113 () Bool)
(declare-fun x134 () Bool)
(declare-fun x21 () Bool)
(declare-fun x147 () Bool)
(declare-fun x164 () x29)
(declare-fun x63 () Bool)
(declare-fun x165 () Bool)
(declare-fun x167 () Bool)
(declare-fun x182 () Bool)
(declare-fun x155 () Bool)
(declare-fun x170 () x121)
(declare-fun x160 () Bool)
(declare-fun x142 () Bool)
(declare-fun x114 () Bool)
(declare-fun x91 () Bool)
(declare-fun x116 () Bool)
(declare-fun x107 () Bool)
(declare-fun x40 () Bool)
(declare-fun x34 () Bool)
(declare-fun x129 () Bool)
(declare-fun x149 () Bool)
(declare-fun x172 () Bool)
(declare-fun x15 () Bool)
(declare-fun x127 () Bool)
(declare-fun x19 () Bool)
(declare-fun x112 () Bool)
(declare-fun x7 () Bool)
(declare-fun x96 () Bool)
(declare-fun x101 () Bool)
(declare-fun x190 () Bool)
(declare-fun x3 () x29)
(declare-fun x23 () Bool)
(declare-fun x90 () Bool)
(declare-fun x64 () Bool)
(declare-fun x41 () Bool)
(declare-fun x36 () x121)
(declare-fun x48 () Bool)
(declare-fun x168 () x29)
(declare-fun x18 () Bool)
(declare-fun x138 () Bool)
(declare-fun x27 () Bool)
(declare-fun x144 () Bool)
(declare-fun x69 () x29)
(declare-fun x44 () Bool)
(declare-fun x189 () x29)
(declare-fun x55 () Bool)
(declare-fun x4 () x121)
(declare-fun x136 () Bool)
(declare-fun x74 () x121)
(declare-fun x92 () Bool)
(declare-fun x32 () x121)
(declare-fun x50 () x29)
(declare-fun x139 () Bool)
(declare-fun x163 () Bool)
(declare-fun x38 () Bool)
(declare-fun x51 () Bool)
(declare-fun x135 () Bool)
(declare-fun x42 () x29)
(declare-fun x111 () x29)
(declare-fun x183 () Bool)
(declare-fun x119 () x121)
(declare-fun x137 () Bool)
(declare-fun x83 () Bool)
(declare-fun x180 () x121)
(declare-fun x78 () x121)
(declare-fun x105 () x29)
(declare-fun x156 () x121)
(declare-fun x46 () Bool)
(declare-fun x31 () Bool)
(declare-fun x106 () Bool)
(declare-fun x60 () Bool)
(declare-fun x181 () Bool)
(declare-fun x73 () x121)
(declare-fun x28 () Bool)
(declare-fun x86 () Bool)
(declare-fun x143 () Bool)
(declare-fun x178 () Bool)
(declare-fun x17 () Bool)
(declare-fun x56 () x121)
(declare-fun x117 () Bool)
(declare-fun x176 () x121)
(declare-fun x115 () Bool)
(declare-fun x5 () Bool)
(declare-fun x16 () Bool)
(declare-fun x126 () Bool)
(declare-fun x30 () x121)
(declare-fun x82 () Bool)
(declare-fun x151 () Bool)
(declare-fun x76 () x29)
(declare-fun x100 () Bool)
(declare-fun x130 () x29)
(declare-fun x14 () Bool)
(declare-fun x57 () Bool)
(declare-fun x54 () x29)
(declare-fun x179 () x29)
(declare-fun x110 () Bool)
(declare-fun x43 () Bool)
(declare-fun x148 () Bool)
(declare-fun x79 () Bool)
(declare-fun x10 () Bool)
(declare-fun x52 () Bool)
(declare-fun x75 () x121)
(declare-fun x67 () Bool)
(declare-fun x123 () Bool)
(declare-fun x103 () Bool)
(declare-fun x13 (x29 x29) x29)
(declare-fun x94 () x121)
(declare-fun x62 () Bool)
(declare-fun x169 () Bool)
(declare-fun x66 () Bool)
(declare-fun x99 () x29)
(declare-fun x11 () Bool)
(declare-fun x157 () Bool)
(declare-fun x59 () Bool)
(declare-fun x125 () Bool)
(declare-fun x77 () x29)
(declare-fun x109 () Bool)
(declare-fun x25 () x29)
(declare-fun x58 () x29)
(declare-fun x154 () Bool)
(declare-fun x9 () Bool)
(declare-fun x133 () Bool)
(declare-fun x45 () Bool)
(assert (= (not x122) x70))
(assert (= x163 (= x73 x166)))
(assert (= (= x75 x73) x187))
(assert (= x110 (not x63)))
(assert (= (not x117) x127))
(assert (= (= x73 x32) x45))
(assert (= x190 (not x191)))
(assert (= (= x131 x73) x108))
(assert (= (= x73 x4) x129))
(assert (= x62 (not x160)))
(assert (= (not x175) x37))
(assert (= x152 (x13 x111 x179)))
(assert (= (not x106) x46))
(assert (= (and x83 x169 x116) x107))
(assert (= x55 (not x34)))
(assert (= (ite x86 x50 x99) x179))
(assert (= (not x68) x22))
(assert (= x171 (ite x23 x50 x99)))
(assert (= (not x60) x183))
(assert (= x9 (not x151)))
(assert (= x28 (not x11)))
(assert (= (not x126) x185))
(assert (= x40 (not x134)))
(assert (= (not x18) x12))
(assert (= (not x49) x14))
(assert (= (x13 x76 x171) x177))
(assert (= (not x93) x38))
(assert (= (= x26 x147) x137))
(assert (= x38 (and x145 x17 x125)))
(assert (= (not x158) x15))
(assert (= x132 (ite x139 x50 x99)))
(assert (= (not x124) x174))
(assert (= x87 (not x51)))
(assert (= (not x103) x7))
(assert (distinct x56 x94 x73 x30 x170 x119))
(assert (= x146 (= x159 x73)))
(assert (= (x120 x50 x152) x67))
(assert (= x125 (not (= x76 x99))))
(assert (= x3 (ite x41 x50 x99)))
(assert (= x39 (= x36 x73)))
(assert (= (x13 x189 x3) x76))
(assert (= x181 (= x73 x78)))
(assert (= (not x44) x48))
(assert (= x43 (not x35)))
(assert (= x96 (not x147)))
(assert (= (not x92) x80))
(assert x150)
(assert (= (x13 x132 x130) x33))
(assert (= (= x161 x73) x53))
(assert (= (not x109) x136))
(assert (= (not x6) x182))
(assert (= (not x140) x144))
(assert (= (not x143) x123))
(assert (= (not x133) x65))
(assert (= (= x74 x73) x47))
(assert (= x111 (x13 x177 x188)))
(assert (= (ite x138 x50 x99) x130))
(assert (= (not x10) x26))
(assert (= (= x176 x73) x24))
(assert (= (not x90) x61))
(assert (= x19 (not x102)))
(assert (= x57 (= x73 x71)))
(assert (= x59 (= x73 x118)))
(assert (= (not x31) x91))
(assert (= x67 (not x113)))
(assert (= (and x82 x113) x96))
(assert (= x184 (not x27)))
(assert (= (ite x185 x50 x99) x188))
(assert (= (not x83) x139))
(assert (= x8 (not x20)))
(assert (= (not x97) x52))
(assert (= (not x157) x81))
(assert (= x1 (not x165)))
(assert (= (= x73 x180) x115))
(assert (= (not x95) x21))
(assert (= (not x88) x86))
(assert (= (not x104) x153))
(assert (= x150 (and x102 x122 x34 x27 x129 x49 x163 x47 x117 x133 x145 x18 x88 x187 x79 x11 x95 x103 x60 x31 x141 x44 x106 x17 x160 x109 x66 x93 x92 x35 x165 x158 x10 x162 x45 x90 x63 x2 x100 x59 x20 x5 x143 x108 x146 x175 x157 x97 x178 x53 x39 x181 x24 x151 x167 x124 x134 x104 x112 x16 x126 x82 x57 x191 x115 x51 x6 x137 x68 x142 x140)))
(assert (= x128 (not x5)))
(assert (= (not x112) x23))
(assert (= (not x162) x149))
(assert (= x41 (not x145)))
(assert (= (not x2) x107))
(assert (= (not x17) x64))
(assert (= x101 (not x100)))
(assert (= x189 (ite x64 x50 x99)))
(assert (not (= x99 x50)))
(assert (= x142 (= x156 x73)))
(assert (= x141 (= x73 x72)))
(assert (= x169 (not (= x33 x99))))
(assert (= x138 (not x116)))
(assert (= x135 (not x16)))
(assert (= x114 (not x79)))
(assert (= x155 (not x167)))
(assert (= (not x178) x172))
(assert (= x186 (not x66)))
(assert (= (not x82) x89))
(check-sat)
(exit)
